175
0 165 11 19 161 86 51 4 41 97 
47 152 166 157 85 111 84 83 164 35 
67 125 117 5 133 155 159 93 81 73 
89 104 44 3 53 135 31 100 162 119 
64 52 22 59 55 76 146 144 13 139 
131 98 36 101 17 45 145 130 10 158 
99 172 127 28 128 153 82 163 167 141 
160 14 113 29 78 147 37 120 143 108 
74 43 34 75 38 96 170 2 49 95 
142 66 71 138 149 114 123 42 16 33 
173 132 80 69 168 63 136 27 46 39 
94 7 174 20 171 112 150 57 9 70 
48 32 56 91 72 118 106 1 50 62 
122 103 126 60 68 8 156 92 24 115 
30 65 26 40 107 140 109 121 148 87 
25 88 12 79 77 129 18 15 61 151 
58 110 154 169 105 102 124 137 116 54 
21 90 23 134 6 
